p tw 70 77
1 2
2 13
3 4
4 5
5 6
6 7
7 8
8 9
8 18
9 10
10 11
11 12
12 14
13 24
14 15
15 16
16 17
17 7
18 19
19 20
20 21
21 22
22 23
23 25
24 35
25 26
25 28
26 27
27 28
27 30
28 29
29 66
30 31
31 32
32 33
33 34
34 36
35 46
36 37
36 20
37 38
38 39
39 40
40 41
40 60
41 42
42 43
43 44
44 45
45 47
46 57
47 48
48 49
49 50
50 51
51 52
51 56
52 53
53 54
54 55
55 56
56 58
57 68
57 3
58 59
59 20
60 61
61 62
62 34
63 64
64 65
65 66
66 67
68 69
69 70
69 23
70 63
